p cnf 1244 1349
c ind 830 831 832 845 852 878 939 940 953 960 0
c ind 964 966 969 985 987 990 1002 1003 1022 1024 0
c ind 1028 1039 1040 1044 1045 1046 1050 1052 823 938 0
c ind 853 865 824 825 937 828 829 936 1197 1198 0
c ind 1196 1195 1193 1194 1192 1187 1229 1234 1211 1220 0
c ind 1191 1215 1225 1242 1190 1189 1188 1228 1233 1210 0
c ind 1219 1214 1224 1241 1227 1232 1209 1218 1213 1223 0
c ind 1240 1185 1226 1231 1208 1217 1212 1222 1239 1186 0
c ind 1203 1207 1237 1184 1179 1183 1182 1181 1180 1205 0
c ind 1235 1236 1206 1177 1178 1230 1216 1221 1238 1170 0
c ind 1171 1176 1175 1174 1173 1172 826 827 1168 1169 0
c ind 1167 1166 1164 1165 1204 1163 1158 1162 1161 1160 0
c ind 1159 1200 1156 1157 1155 1150 1154 1153 1152 1151 0
c ind 1201 1148 1149 1141 1142 1147 1146 1145 1144 1143 0
c ind 1139 1140 1138 1137 1135 1136 1134 1129 1133 1132 0
c ind 1131 1130 1202 1127 1128 1126 1199 1121 1125 1124 0
c ind 1123 1122 1119 1120 1112 1113 1118 1117 1116 1115 0
c ind 1114 1110 1111 1109 1108 1106 1107 1105 1100 1104 0
c ind 1103 1102 1101 1098 1099 1097 1092 1096 1095 1094 0
c ind 1093 1090 1091 1083 1084 1089 1088 1087 1086 1085 0
c ind 1081 1082 1080 1079 1077 1078 1076 1071 1075 1074 0
c ind 1073 1072 1069 1070 1068 1063 1067 1066 1065 1064 0
c ind 1061 1062 1054 1055 1060 1059 1058 1057 1056 1034 0
c ind 1035 1033 1032 1031 1053 1043 1041 1042 1030 1029 0
c ind 1051 1038 1027 1049 1047 1048 1036 1037 1026 1025 0
c ind 1018 1023 1021 1019 1020 1017 1010 1009 1016 1015 0
c ind 1014 1013 1012 1011 1008 1007 1006 1005 1004 822 0
c ind 997 835 996 994 995 993 992 998 999 991 0
c ind 989 1000 988 1001 986 984 982 983 981 980 0
c ind 979 978 977 976 943 975 973 974 972 971 0
c ind 970 968 967 965 963 961 962 959 954 958 0
c ind 955 956 950 957 952 948 949 951 947 942 0
c ind 946 944 945 941 935 928 920 934 933 932 0
c ind 931 914 913 912 930 911 929 910 909 908 0
c ind 927 926 925 924 923 922 921 919 918 917 0
c ind 916 915 907 900 892 906 905 904 903 886 0
c ind 885 884 902 883 901 882 881 880 899 898 0
c ind 897 896 895 894 893 891 890 889 888 887 0
c ind 879 877 875 876 866 867 874 873 872 871 0
c ind 870 868 869 862 861 863 864 860 859 858 0
c ind 857 855 856 854 851 850 846 847 848 849 0
c ind 842 844 841 840 843 834 839 833 838 836 0
c ind 837 1 0
c ret 619 620 621 622 623 624 625 626 627 628 0
c ret 629 630 631 632 633 634 635 636 637 638 0
c ret 639 640 641 642 643 644 645 646 647 648 0
c ret 649 650 651 652 653 654 655 656 657 658 0
c ret 659 660 661 662 663 664 665 666 667 668 0
c ret 669 670 671 672 673 674 675 676 677 678 0
c ret 679 680 681 682 683 684 685 686 687 688 0
c ret 689 690 691 692 693 694 695 696 697 698 0
c ret 699 700 701 702 703 704 705 706 707 708 0
c ret 709 710 711 712 713 714 715 716 717 718 0
c ret 719 720 721 722 723 724 725 726 727 728 0
c ret 729 730 731 732 733 734 735 736 737 738 0
c ret 739 740 741 742 743 744 745 746 747 748 0
c ret 749 750 751 752 753 754 755 756 757 758 0
c ret 759 760 761 762 763 764 765 766 767 768 0
c ret 769 770 771 772 773 774 775 776 777 778 0
c ret 779 780 781 782 783 784 314 785 786 320 0
c ret 321 322 323 324 325 326 327 328 329 330 0
c ret 331 332 333 334 335 336 337 338 339 340 0
c ret 787 788 341 342 789 790 343 344 345 346 0
c ret 347 348 349 350 351 352 353 354 355 356 0
c ret 315 357 358 791 359 792 360 361 793 362 0
c ret 794 363 364 365 366 367 368 369 370 371 0
c ret 372 373 795 374 375 376 377 378 796 379 0
c ret 380 797 381 382 798 383 799 384 385 386 0
c ret 387 388 389 390 391 392 393 394 395 396 0
c ret 800 397 316 398 399 801 400 802 401 402 0
c ret 403 803 404 804 405 406 407 408 409 410 0
c ret 411 412 413 414 415 416 417 418 419 420 0
c ret 421 422 805 423 806 424 425 426 807 808 0
c ret 427 428 429 430 431 432 433 434 435 436 0
c ret 809 437 317 438 439 440 441 442 443 810 0
c ret 444 811 445 446 812 813 447 448 449 450 0
c ret 451 452 453 454 814 455 815 456 457 458 0
c ret 816 459 460 461 462 463 464 465 466 467 0
c ret 468 469 470 471 472 817 473 474 475 476 0
c ret 818 477 819 478 820 479 821 480 481 482 0
c ret 483 484 485 486 487 488 489 490 491 492 0
c ret 493 494 495 496 497 498 499 500 501 502 0
c ret 503 504 505 506 507 508 318 509 510 511 0
c ret 512 513 514 515 516 517 518 519 520 521 0
c ret 522 523 524 525 526 527 528 529 530 531 0
c ret 532 533 534 535 536 537 538 539 540 541 0
c ret 542 543 544 545 546 547 319 548 549 550 0
c ret 551 552 553 554 555 556 557 558 559 560 0
c ret 561 562 563 564 565 566 567 568 569 570 0
c ret 571 572 573 574 575 576 577 578 579 580 0
c ret 581 582 583 584 585 586 587 588 589 590 0
c ret 591 592 593 594 595 596 597 598 599 600 0
c ret 601 602 603 604 605 606 607 608 609 610 0
c ret 611 612 613 614 615 616 617 618 0
2 140 307 -308 0
2 3 307 -308 0
-2 308 0
-2 -307 0
-2 -3 -140 0
3 -4 -64 130 0
3 4 64 -120 0
3 4 64 130 0
3 -4 -64 -120 0
-3 4 -64 0
-3 -4 64 0
-3 120 -130 0
4 -5 -21 0
4 -5 58 0
-4 5 0
-4 21 -58 0
5 6 -14 15 0
-5 -6 0
-5 14 0
-5 -15 0
6 -7 8 0
-6 7 0
-6 -8 0
7 1083 0
7 -1084 1090 0
7 1084 1091 0
-7 -1083 1084 -1091 0
-7 -1083 -1084 -1090 0
8 9 11 0
8 9 10 0
8 9 13 0
-8 -9 0
-8 -10 -11 -13 0
9 1083 0
9 -1084 -1090 0
9 1084 -1091 0
-9 -1083 1084 1091 0
-9 -1083 -1084 1090 0
10 1092 1099 0
10 -1092 1098 0
-10 -1092 -1098 0
-10 1092 -1099 0
11 12 0
11 1100 -1107 0
11 -1100 -1106 0
-11 -12 1100 1107 0
-11 -12 -1100 1106 0
9 -10 12 0
-9 -12 0
10 -12 0
12 13 0
13 -1100 1106 0
13 1100 1107 0
-12 -13 -1100 -1106 0
-12 -13 1100 -1107 0
14 -1112 -1141 -1170 0
-14 1112 0
-14 1141 0
-14 1170 0
15 -16 -17 0
15 -17 -20 0
-15 17 0
-15 16 20 0
16 1054 0
16 -1055 -1061 0
16 1055 -1062 0
-16 -1054 1055 1062 0
-16 -1054 -1055 1061 0
17 -18 -19 0
-16 17 -19 0
-17 19 0
16 -17 18 0
-16 18 0
18 1063 -1070 0
18 -1063 -1069 0
16 -18 -1063 1069 0
16 -18 1063 1070 0
19 1054 0
19 -1055 1061 0
19 1055 1062 0
-19 -1054 1055 -1062 0
-19 -1054 -1055 -1061 0
-16 20 0
20 -1063 1069 0
20 1063 1070 0
16 -20 -1063 -1069 0
16 -20 1063 -1070 0
21 -22 -57 -1220 0
21 22 -23 -57 0
-21 57 0
-21 -22 1220 0
-21 22 23 0
22 1049 -1051 0
-22 -1049 0
-22 1051 0
23 -24 -1219 0
23 24 -25 0
-23 -24 1219 0
-23 24 25 0
24 1021 -1023 0
-24 -1021 0
-24 1023 0
25 26 49 56 0
25 26 49 -52 0
-25 -26 0
-25 -49 0
-25 52 -56 0
26 -47 822 -997 0
26 27 822 997 0
-26 -822 0
-26 47 -997 0
-26 -27 997 0
27 -28 -1216 0
-27 1216 0
-27 28 0
28 -29 43 0
-28 29 0
-28 -43 0
29 -36 37 0
29 30 37 -887 0
-29 -37 0
-29 -30 36 0
-29 36 887 0
30 31 0
30 34 -886 0
30 34 892 0
-30 -31 -34 0
-30 -31 886 -892 0
31 -32 33 -880 -887 0
-31 32 0
-31 -33 0
-31 880 0
-31 887 0
32 881 882 883 0
-32 -881 0
-32 -883 0
-32 -882 0
33 884 -885 0
-33 -884 0
-33 885 0
34 35 886 892 -893 0
-34 -886 0
-34 -35 0
-34 893 0
-34 -892 0
35 900 901 0
-35 -900 0
-35 -901 0
32 36 -880 0
33 36 -880 -886 0
-36 880 0
-32 -36 886 0
-32 -33 -36 0
37 39 42 0
37 39 -41 0
37 38 39 0
-37 -39 0
-37 -38 41 -42 0
38 909 910 911 0
-38 -909 0
-38 -911 0
-38 -910 0
38 39 -908 0
39 40 -908 -914 0
-39 908 0
-38 -39 914 0
-38 -39 -40 0
40 912 -913 0
-40 -912 0
-40 913 0
41 920 921 0
41 920 928 929 0
-41 -920 0
-41 -921 -928 0
-41 -921 -929 0
40 42 -908 914 -915 0
-42 915 0
-40 -42 0
-42 908 0
-42 -914 0
43 -44 -854 0
43 -46 -854 0
43 -45 -854 0
-43 854 0
-43 44 45 46 0
44 -855 856 857 0
-44 855 0
-44 -857 0
-44 -856 0
45 860 863 864 0
-45 -860 0
-45 -864 0
-45 -863 0
46 -860 861 862 0
-46 860 0
-46 -862 0
-46 -861 0
47 -48 1217 0
27 47 48 0
-47 -48 -1217 0
-27 -47 48 0
48 963 -965 0
-48 -963 0
-48 965 0
49 -50 -51 -1007 0
49 -50 -51 -1008 0
-49 51 0
-49 50 0
-49 1007 1008 0
50 1010 1011 1012 1013 0
-50 -1013 0
-50 -1012 0
-50 -1010 0
-50 -1011 0
51 -1004 -1005 -1006 1009 0
-51 1006 0
-51 -1009 0
-51 1004 0
-51 1005 0
47 52 -53 0
-47 -52 0
-52 53 0
53 54 55 0
-53 -54 0
-53 -55 0
54 976 977 978 0
-54 -976 0
-54 -978 0
-54 -977 0
55 984 -986 0
-55 -984 0
-55 986 0
55 56 -822 0
56 -822 1218 0
-56 822 0
-55 -56 -1218 0
57 -1018 1025 0
-57 1018 0
-57 -1025 0
58 -59 -1018 0
23 25 58 0
23 58 -1018 0
25 58 -59 0
-25 -58 1018 0
-23 -58 59 0
59 61 1025 0
59 -60 61 0
59 61 1018 0
-59 -61 0
-59 60 -1018 -1025 0
60 -1026 1027 0
-60 1026 0
-60 -1027 0
61 62 -63 0
-61 -62 0
-61 63 0
62 1029 -1030 -1031 1032 0
-62 -1029 0
-62 -1032 0
-62 1031 0
-62 1030 0
63 -1018 -1025 -1026 1027 0
-63 1026 0
-63 -1027 0
-63 1018 0
-63 1025 0
64 -65 -75 0
64 -65 114 0
-64 65 0
-64 75 -114 0
65 -66 -68 0
-65 66 0
-65 68 0
66 -67 -633 -662 0
-66 633 0
-66 662 0
-66 67 0
67 -604 -691 -720 -749 0
-67 749 0
-67 604 0
-67 720 0
-67 691 0
68 69 -575 0
-68 575 0
-68 -69 0
69 -70 -71 0
69 -71 -74 0
-69 71 0
-69 70 74 0
70 546 0
70 -547 -553 0
70 547 -554 0
-70 -546 547 554 0
-70 -546 -547 553 0
-70 71 -72 0
71 -72 -73 0
-71 72 0
70 -71 73 0
72 546 0
72 -547 553 0
72 547 554 0
-72 -546 547 -554 0
-72 -546 -547 -553 0
-70 73 0
73 555 -562 0
73 -555 -561 0
70 -73 -555 561 0
70 -73 555 562 0
-70 74 0
74 -555 561 0
74 555 562 0
70 -74 -555 -561 0
70 -74 555 -562 0
75 -76 -113 -799 0
75 76 -77 -113 0
-75 113 0
-75 -76 799 0
-75 76 77 0
76 541 -543 0
-76 -541 0
-76 543 0
77 -78 -798 0
77 78 -79 0
-77 -78 798 0
-77 78 79 0
78 513 -515 0
-78 -513 0
-78 515 0
79 80 105 112 0
79 80 105 -108 0
-79 -80 0
-79 -105 0
-79 108 -112 0
80 -103 314 -489 0
80 81 314 489 0
-80 -314 0
-80 103 -489 0
-80 -81 489 0
81 -82 -795 0
-81 795 0
-81 82 0
82 83 -87 0
-82 -83 0
-82 87 0
83 -84 -346 0
83 -86 -346 0
83 -85 -346 0
-83 346 0
-83 84 85 86 0
84 -347 348 349 0
-84 347 0
-84 -349 0
-84 -348 0
85 352 355 356 0
-85 -352 0
-85 -356 0
-85 -355 0
86 -352 353 354 0
-86 352 0
-86 -354 0
-86 -353 0
87 88 -95 0
87 88 98 -379 0
-87 -88 0
-87 95 -98 0
-87 95 379 0
88 -89 92 0
88 92 400 0
-88 -92 0
-88 89 -400 0
89 -91 403 406 0
89 -90 -91 403 0
-89 -403 0
-89 91 0
-89 90 -406 0
90 404 -405 0
-90 -404 0
-90 405 0
91 401 402 0
-91 -401 0
-91 -402 0
90 -91 92 93 -94 0
91 -92 0
-92 -93 0
-90 -92 0
-92 94 0
93 412 413 0
93 412 420 421 0
-93 -412 0
-93 -413 -420 0
-93 -413 -421 0
94 -400 403 406 -407 0
-94 407 0
-94 -406 0
-94 400 0
-94 -403 0
95 96 -372 0
95 97 -372 -378 0
-95 372 0
-95 -96 378 0
-95 -96 -97 0
96 373 374 375 0
-96 -373 0
-96 -375 0
-96 -374 0
97 376 -377 0
-97 -376 0
-97 377 0
98 99 102 0
-98 -99 0
-98 -102 0
99 -100 -101 -392 0
99 -100 -101 -393 0
-99 101 0
-99 100 0
-99 392 393 0
-96 97 100 -372 -379 0
96 -100 0
-97 -100 0
-100 372 0
-100 379 0
101 378 384 -385 0
-101 385 0
-101 -384 0
-101 -378 0
-100 102 378 -384 0
100 -102 0
-102 384 0
-102 -378 0
103 -104 796 0
81 103 104 0
-103 -104 -796 0
-81 -103 104 0
104 455 -457 0
-104 -455 0
-104 457 0
105 -106 -107 -499 0
105 -106 -107 -500 0
-105 107 0
-105 106 0
-105 499 500 0
106 502 503 504 505 0
-106 -505 0
-106 -504 0
-106 -502 0
-106 -503 0
107 -496 -497 -498 501 0
-107 498 0
-107 -501 0
-107 496 0
-107 497 0
103 108 -109 0
-103 -108 0
-108 109 0
109 110 111 0
-109 -110 0
-109 -111 0
110 468 469 470 0
-110 -468 0
-110 -470 0
-110 -469 0
111 476 -478 0
-111 -476 0
-111 478 0
111 112 -314 0
112 -314 797 0
-112 314 0
-111 -112 -797 0
113 -510 517 0
-113 510 0
-113 -517 0
114 -115 -510 0
77 79 114 0
77 114 -510 0
79 114 -115 0
-79 -114 510 0
-77 -114 115 0
115 117 517 0
115 -116 117 0
115 117 510 0
-115 -117 0
-115 116 -510 -517 0
116 -518 519 0
-116 518 0
-116 -519 0
117 118 -119 0
-117 -118 0
-117 119 0
118 521 -522 -523 524 0
-118 -521 0
-118 -524 0
-118 523 0
-118 522 0
119 -510 -517 -518 519 0
-119 518 0
-119 -519 0
-119 510 0
-119 517 0
-5 120 -121 0
-5 120 129 0
5 -120 0
-120 121 -129 0
22 -57 121 -122 0
-22 -57 121 -1242 0
57 -121 0
22 -121 122 0
-22 -121 1242 0
-24 122 -1241 0
24 122 -123 0
-24 -122 1241 0
24 -122 123 0
49 123 124 128 0
49 123 124 -127 0
-49 -123 0
-123 -124 0
-123 127 -128 0
124 -126 822 -997 0
124 125 822 997 0
-124 -822 0
-124 126 -997 0
-124 -125 997 0
-28 125 -1238 0
-125 1238 0
28 -125 0
-48 126 1239 0
48 125 126 0
-48 -126 -1239 0
48 -125 -126 0
-53 126 127 0
53 -127 0
-126 -127 0
55 128 -822 0
128 -822 1240 0
-128 822 0
-55 -128 -1240 0
-59 123 129 0
122 129 -1018 0
-59 129 -1018 0
122 123 129 0
59 -122 -129 0
-123 -129 1018 0
-65 130 -131 0
-65 130 139 0
65 -130 0
-130 131 -139 0
76 -113 131 -132 0
-76 -113 131 -821 0
113 -131 0
76 -131 132 0
-76 -131 821 0
-78 132 -820 0
78 132 -133 0
-78 -132 820 0
78 -132 133 0
105 133 134 138 0
105 133 134 -137 0
-105 -133 0
-133 -134 0
-133 137 -138 0
134 -136 314 -489 0
134 135 314 489 0
-134 -314 0
-134 136 -489 0
-134 -135 489 0
-82 135 -817 0
-135 817 0
82 -135 0
-104 136 818 0
104 135 136 0
-104 -136 -818 0
104 -135 -136 0
-109 136 137 0
109 -137 0
-136 -137 0
111 138 -314 0
138 -314 819 0
-138 314 0
-111 -138 -819 0
-115 133 139 0
132 139 -510 0
-115 139 -510 0
132 133 139 0
115 -132 -139 0
-133 -139 510 0
140 141 150 -159 -286 0
140 -141 -150 -159 -286 0
-140 286 0
-140 -141 150 0
-140 159 0
-140 141 -150 0
-5 141 -142 0
-5 141 149 0
5 -141 0
-141 142 -149 0
22 -57 142 -143 0
-22 -57 142 -1215 0
57 -142 0
22 -142 143 0
-22 -142 1215 0
-24 143 -1214 0
24 143 -144 0
-24 -143 1214 0
24 -143 144 0
49 144 145 148 0
49 144 145 -147 0
-49 -144 0
-144 -145 0
-144 147 -148 0
145 -146 822 -997 0
28 145 822 997 0
-145 -822 0
-145 146 -997 0
-28 -145 997 0
-48 146 1212 0
28 48 146 0
-48 -146 -1212 0
-28 48 -146 0
-53 146 147 0
53 -147 0
-146 -147 0
55 148 -822 0
148 -822 1213 0
-148 822 0
-55 -148 -1213 0
-59 144 149 0
143 149 -1018 0
-59 149 -1018 0
143 144 149 0
59 -143 -149 0
-144 -149 1018 0
-65 150 -151 0
-65 150 158 0
65 -150 0
-150 151 -158 0
76 -113 151 -152 0
-76 -113 151 -794 0
113 -151 0
76 -151 152 0
-76 -151 794 0
-78 152 -793 0
78 152 -153 0
-78 -152 793 0
78 -152 153 0
105 153 154 157 0
105 153 154 -156 0
-105 -153 0
-153 -154 0
-153 156 -157 0
154 -155 314 -489 0
82 154 314 489 0
-154 -314 0
-154 155 -489 0
-82 -154 489 0
-104 155 791 0
82 104 155 0
-104 -155 -791 0
-82 104 -155 0
-109 155 156 0
109 -156 0
-155 -156 0
111 157 -314 0
157 -314 792 0
-157 314 0
-111 -157 -792 0
-115 153 158 0
152 158 -510 0
-115 158 -510 0
152 153 158 0
115 -152 -158 0
-153 -158 510 0
159 -160 -209 -266 -276 0
159 -160 -209 266 276 0
-159 209 0
-159 266 -276 0
-159 160 0
-159 -266 276 0
160 -161 -175 -200 0
160 161 175 191 0
160 161 175 -200 0
160 -161 -175 191 0
-160 161 -175 0
-160 -161 175 0
-160 -191 200 0
161 -162 -163 0
161 -162 -173 0
161 -162 -172 0
-161 162 0
-161 163 172 173 0
-14 15 162 -1083 0
-162 1083 0
14 -162 0
-15 -162 0
163 166 -167 0
-53 163 164 -167 0
-163 167 0
-163 -164 -166 0
53 -163 -166 0
-48 164 1222 0
48 164 165 0
-48 -164 -1222 0
48 -164 -165 0
-28 165 -1221 0
-165 1221 0
28 -165 0
55 166 -822 0
166 -822 1223 0
-166 822 0
-55 -166 -1223 0
167 -168 171 0
-167 168 0
-167 -171 0
49 168 169 0
-49 -168 0
-168 -169 0
-24 169 -1018 0
169 -170 -1018 0
-169 1018 0
24 -169 170 0
-22 61 170 1025 0
-60 61 170 -1025 0
-61 -170 0
60 -170 -1025 0
22 -170 1025 0
-164 171 822 -997 0
165 171 822 997 0
-171 -822 0
164 -171 -997 0
-165 -171 997 0
-22 -57 172 -1225 0
-172 1225 0
22 -172 0
57 -172 0
-24 173 -174 -1224 0
-173 1224 0
24 -173 0
-173 174 0
170 174 -1018 0
-174 1018 0
-170 -174 0
175 -176 -179 0
175 -176 -189 0
175 -176 -188 0
-175 176 0
-175 179 188 189 0
-66 69 176 178 0
-66 69 176 177 0
66 -176 0
-69 -176 0
-176 -177 -178 0
177 575 0
177 -576 -582 0
177 576 -583 0
-177 -575 576 583 0
-177 -575 -576 582 0
178 575 0
178 -576 582 0
178 576 583 0
-178 -575 576 -583 0
-178 -575 -576 -582 0
179 182 -183 0
-109 179 180 -183 0
-179 183 0
-179 -180 -182 0
109 -179 -182 0
-104 180 801 0
104 180 181 0
-104 -180 -801 0
104 -180 -181 0
-82 181 -800 0
-181 800 0
82 -181 0
111 182 -314 0
182 -314 802 0
-182 314 0
-111 -182 -802 0
183 -184 187 0
-183 184 0
-183 -187 0
105 184 185 0
-105 -184 0
-184 -185 0
-78 185 -510 0
185 -186 -510 0
-185 510 0
78 -185 186 0
-76 117 186 517 0
-116 117 186 -517 0
-117 -186 0
116 -186 -517 0
76 -186 517 0
-180 187 314 -489 0
181 187 314 489 0
-187 -314 0
180 -187 -489 0
-181 -187 489 0
-76 -113 188 -804 0
-188 804 0
76 -188 0
113 -188 0
-78 189 -190 -803 0
-189 803 0
78 -189 0
-189 190 0
186 190 -510 0
-190 510 0
-186 -190 0
-162 191 -192 0
-162 191 -199 0
-162 191 -198 0
162 -191 0
-191 192 198 199 0
192 195 -196 0
-53 192 193 -196 0
-192 196 0
-192 -193 -195 0
53 -192 -195 0
-48 193 1231 0
48 193 194 0
-48 -193 -1231 0
48 -193 -194 0
-28 194 -1230 0
-194 1230 0
28 -194 0
55 195 -822 0
195 -822 1232 0
-195 822 0
-55 -195 -1232 0
-168 196 197 0
168 -196 0
-196 -197 0
-193 197 822 -997 0
194 197 822 997 0
-197 -822 0
193 -197 -997 0
-194 -197 997 0
-22 -57 198 -1234 0
-198 1234 0
22 -198 0
57 -198 0
-24 -174 199 -1233 0
-199 1233 0
24 -199 0
174 -199 0
-176 200 -201 0
-176 200 -208 0
-176 200 -207 0
176 -200 0
-200 201 207 208 0
201 204 -205 0
-109 201 202 -205 0
-201 205 0
-201 -202 -204 0
109 -201 -204 0
-104 202 810 0
104 202 203 0
-104 -202 -810 0
104 -202 -203 0
-82 203 -809 0
-203 809 0
82 -203 0
111 204 -314 0
204 -314 811 0
-204 314 0
-111 -204 -811 0
-184 205 206 0
184 -205 0
-205 -206 0
-202 206 314 -489 0
203 206 314 489 0
-206 -314 0
202 -206 -489 0
-203 -206 489 0
-76 -113 207 -813 0
-207 813 0
76 -207 0
113 -207 0
-78 -190 208 -812 0
-208 812 0
78 -208 0
190 -208 0
-191 209 -210 -248 0
200 209 -210 -248 0
-209 248 0
-209 210 0
191 -200 -209 0
210 211 234 237 -240 0
210 211 -234 -237 -240 0
-210 240 0
-210 -234 237 0
-210 -211 0
-210 234 -237 0
211 212 -223 0
-211 -212 0
-211 223 0
212 -216 314 0
110 212 -213 -216 0
-212 216 0
-212 213 -314 0
-110 -212 -314 0
213 433 -816 0
213 -214 -433 0
-213 214 -433 0
-213 433 816 0
-87 214 -778 0
83 -87 214 215 0
87 -214 0
-214 -215 778 0
-83 -214 778 0
215 325 815 0
-215 -325 0
-215 -815 0
216 217 -220 0
-216 -217 0
-216 220 0
213 217 218 0
213 214 217 0
214 217 -218 314 0
-213 -217 218 0
-214 -217 -218 0
-213 -217 -314 0
218 -219 489 490 0
-218 219 0
-218 -490 0
-218 -489 0
219 491 492 493 0
-219 -491 0
-219 -493 0
-219 -492 0
-66 220 221 -222 -575 0
-220 222 0
-220 575 0
66 -220 0
-220 -221 0
-71 221 546 0
-71 -74 221 0
71 -221 0
74 -221 -546 0
105 119 222 0
105 118 222 0
-105 -222 0
-118 -119 -222 0
223 -227 822 0
54 223 -224 -227 0
-223 227 0
-223 224 -822 0
-54 -223 -822 0
224 941 -1237 0
224 -225 -941 0
-224 225 -941 0
-224 941 1237 0
-29 225 -1199 0
-29 43 225 226 0
29 -225 0
-225 -226 1199 0
-43 -225 1199 0
226 833 1236 0
-226 -833 0
-226 -1236 0
227 228 -231 0
-227 -228 0
-227 231 0
224 228 229 0
224 225 228 0
225 228 -229 822 0
-224 -228 229 0
-225 -228 -229 0
-224 -228 -822 0
229 -230 997 998 1001 0
-229 230 0
-229 -1001 0
-229 -997 0
-229 -998 0
230 999 1000 0
-230 -999 0
-230 -1000 0
6 -14 231 -232 0
-231 232 0
14 -231 0
-6 -231 0
17 232 -233 0
20 232 -233 -1054 0
-232 233 0
-17 -20 -232 0
-17 -232 1054 0
49 63 233 0
49 62 233 0
-49 -233 0
-62 -63 -233 0
6 -29 -232 234 -235 0
-6 -234 0
-234 235 0
232 -234 0
29 -234 0
-14 235 -236 822 0
-14 54 235 -236 0
-235 236 0
14 -235 0
-54 -235 -822 0
236 -1199 1201 0
-236 1199 0
-236 -1201 0
-87 -220 237 238 -239 0
-237 239 0
87 -237 0
220 -237 0
-237 -238 0
-110 238 -314 0
-238 314 0
110 -238 0
239 -778 780 0
-239 778 0
-239 -780 0
13 240 -242 0
11 240 -242 0
240 241 -242 0
-240 242 0
-11 -13 -240 -241 0
-7 -9 241 0
-7 -10 241 0
7 -241 0
9 10 -241 0
19 242 -243 0
18 242 -243 0
20 242 -243 0
-242 243 0
-18 -19 -20 -242 0
30 37 243 -244 0
-36 37 243 -244 0
-243 244 0
-37 -243 0
-30 36 -243 0
43 -233 244 245 -246 0
233 -244 0
-244 -245 0
-43 -244 0
-244 246 0
-54 245 -822 0
-245 822 0
54 -245 0
-14 246 247 -826 0
-14 246 247 827 0
14 -246 0
-246 -247 0
-246 826 -827 0
247 824 825 0
-247 -824 0
-247 -825 0
212 248 -249 -258 0
-223 248 249 258 0
212 248 249 258 0
-223 248 -249 -258 0
-248 249 -258 0
-248 -249 258 0
-212 223 -248 0
249 -254 314 0
110 249 250 -254 0
-249 254 0
-249 -250 -314 0
-110 -249 -314 0
250 251 -433 0
-87 250 -253 433 0
-250 -251 -433 0
87 -250 433 0
-250 253 433 0
-87 251 -252 0
87 -251 0
-251 252 0
252 -778 -780 0
83 252 778 0
252 -778 -784 0
-83 -252 778 0
-252 -778 780 784 0
253 -778 780 786 0
-253 778 0
-253 -786 0
-253 -780 0
-220 254 -255 256 0
-220 250 254 256 0
220 -254 0
-254 -256 0
-250 -254 255 0
255 489 490 0
-255 -489 0
-255 -490 0
251 256 -257 0
219 -250 256 0
219 256 -257 0
-250 251 256 0
250 -256 257 0
-219 -251 -256 0
-218 257 314 0
-257 -314 0
218 -257 0
258 -263 822 0
54 258 259 -263 0
-258 263 0
-258 -259 -822 0
-54 -258 -822 0
259 260 -941 0
-29 259 -262 941 0
-259 -260 -941 0
29 -259 941 0
-259 262 941 0
-29 260 -261 0
29 -260 0
-260 261 0
261 -1199 -1201 0
43 261 1199 0
261 -1199 -1205 0
-43 -261 1199 0
-261 -1199 1201 1205 0
262 -1199 1201 1207 0
-262 1199 0
-262 -1207 0
-262 -1201 0
-229 -231 263 264 0
-231 259 263 264 0
231 -263 0
-263 -264 0
229 -259 -263 0
260 264 -265 0
-264 265 0
-260 -264 0
-229 265 822 0
-265 -822 0
229 -265 0
-5 169 266 267 0
-5 266 267 275 0
5 -266 0
-266 -267 0
-169 -266 -275 0
267 269 1018 0
24 267 268 269 0
-267 -269 0
-267 -268 -1018 0
-24 -267 -1018 0
-22 268 1025 -1229 0
22 -268 0
-268 1229 0
-268 -1025 0
49 269 270 274 0
49 269 270 -273 0
-49 -269 0
-269 -270 0
-269 273 -274 0
270 -272 822 -997 0
270 271 822 997 0
-270 -822 0
-270 272 -997 0
-270 -271 997 0
-28 271 -826 0
-271 826 0
28 -271 0
-48 272 1226 0
48 271 272 0
-48 -272 -1226 0
48 -271 -272 0
-53 272 273 0
53 -273 0
-272 -273 0
55 274 -822 0
274 -822 1227 0
-274 822 0
-55 -274 -1227 0
-170 268 275 0
268 275 1228 0
-268 -275 0
170 -275 -1228 0
-66 -68 276 277 285 0
68 -276 0
-276 -285 0
66 -276 0
-276 -277 0
277 279 510 0
78 277 278 279 0
-277 -279 0
-277 -278 -510 0
-78 -277 -510 0
-76 278 517 -808 0
76 -278 0
-278 808 0
-278 -517 0
105 279 280 284 0
105 279 280 -283 0
-105 -279 0
-279 -280 0
-279 283 -284 0
280 -282 314 -489 0
280 281 314 489 0
-280 -314 0
-280 282 -489 0
-280 -281 489 0
-82 281 -318 0
-281 318 0
82 -281 0
-104 282 805 0
104 281 282 0
-104 -282 -805 0
104 -281 -282 0
-109 282 283 0
109 -283 0
-282 -283 0
111 284 -314 0
284 -314 806 0
-284 314 0
-111 -284 -806 0
-185 -186 278 285 0
-185 278 285 807 0
185 -285 0
-278 -285 0
186 -285 -807 0
120 286 -287 -297 0
-130 286 287 297 0
120 286 287 297 0
-130 286 -287 -297 0
-286 287 -297 0
-286 -287 297 0
-120 130 -286 0
-5 287 -288 0
-5 287 296 0
5 -287 0
-287 288 -296 0
22 -57 288 -289 0
-22 -57 288 -1211 0
57 -288 0
22 -288 289 0
-22 -288 1211 0
-24 289 -1210 0
24 289 -290 0
-24 -289 1210 0
24 -289 290 0
49 290 291 295 0
49 290 291 -294 0
-49 -290 0
-290 -291 0
-290 294 -295 0
291 292 -822 1209 0
55 291 292 -822 0
-291 822 0
-291 -292 0
-55 -291 -1209 0
-53 292 293 0
53 -292 0
-292 -293 0
28 48 293 0
-48 293 1208 0
48 293 827 0
-48 -293 -1208 0
-28 48 -293 -827 0
-28 48 294 -827 0
-28 294 -827 997 0
28 -294 0
-294 827 0
-48 -294 -997 0
295 822 1208 0
295 822 997 0
48 295 822 0
-295 -822 0
-48 -295 -997 -1208 0
-59 290 296 0
289 296 -1018 0
-59 296 -1018 0
289 290 296 0
59 -289 -296 0
-290 -296 1018 0
-65 297 -298 0
-65 297 306 0
65 -297 0
-297 298 -306 0
76 -113 298 -299 0
-76 -113 298 -790 0
113 -298 0
76 -298 299 0
-76 -298 790 0
-78 299 -789 0
78 299 -300 0
-78 -299 789 0
78 -299 300 0
105 300 301 305 0
105 300 301 -304 0
-105 -300 0
-300 -301 0
-300 304 -305 0
301 302 -314 788 0
111 301 302 -314 0
-301 314 0
-301 -302 0
-111 -301 -788 0
-109 302 303 0
109 -302 0
-302 -303 0
82 104 303 0
-104 303 787 0
104 303 319 0
-104 -303 -787 0
-82 104 -303 -319 0
-82 104 304 -319 0
-82 304 -319 489 0
82 -304 0
-304 319 0
-104 -304 -489 0
305 314 787 0
305 314 489 0
104 305 314 0
-305 -314 0
-104 -305 -489 -787 0
-115 300 306 0
299 306 -510 0
-115 306 -510 0
299 300 306 0
115 -299 -306 0
-300 -306 510 0
-72 -73 -74 307 0
72 -307 0
73 -307 0
74 -307 0
-95 308 -309 0
-99 308 -309 0
-102 308 -309 0
-308 309 0
95 99 102 -308 0
83 88 -222 309 -310 0
-83 -309 0
-309 310 0
222 -309 0
-88 -309 0
238 310 -311 -312 -313 0
-238 -310 0
-310 313 0
-310 312 0
-310 311 0
311 -691 -720 -749 0
-311 691 0
-311 720 0
-311 749 0
312 -575 -604 -633 -662 0
-312 662 0
-312 575 0
-312 633 0
-312 604 0
313 -317 -318 0
313 -316 319 0
313 -316 -318 0
313 -317 319 0
-313 318 -319 0
-313 316 317 0
1 2 0
-1 -2 0
1243 0

